902
1 0 5 452 0 902 1 901 1 900 1 899 1
2 0 5 453 1 568 1 579 1 633 1 517 1
3 0 5 454 1 799 1 679 1 556 1 828 1
4 0 5 455 1 452 1 857 1 824 1 788 1
5 0 5 456 1 642 1 727 1 487 1 675 1
6 0 5 457 1 612 1 782 1 789 1 595 1
7 0 5 458 1 630 1 511 1 779 1 663 1
8 0 5 459 1 709 1 865 1 481 1 752 1
9 0 5 460 1 771 1 712 1 495 1 486 1
10 0 5 461 1 499 1 751 1 464 1 757 1
11 0 5 462 1 604 1 788 1 627 1 455 1
12 0 5 463 1 821 1 622 1 456 1 562 1
13 0 5 464 1 499 1 461 1 751 1 592 1
14 0 5 465 1 856 1 467 1 528 1 763 1
15 0 5 466 1 740 1 458 1 663 1 565 1
16 0 5 467 1 528 1 472 1 763 1 693 1
17 0 5 468 1 766 1 743 1 588 1 731 1
18 0 5 469 1 807 1 678 1 624 1 561 1
19 0 5 470 1 690 1 659 1 639 1 652 1
20 0 5 471 1 834 1 507 1 790 1 572 1
21 0 5 472 1 763 1 693 1 827 1 783 1
22 0 5 473 1 798 1 497 1 571 1 684 1
23 0 5 474 1 851 1 584 1 769 1 717 1
24 0 5 475 1 645 1 868 1 736 1 803 1
25 0 5 476 1 545 1 681 1 755 1 534 1
26 0 5 477 1 548 1 482 1 694 1 711 1
27 0 5 478 1 855 1 802 1 699 1 734 1
28 0 5 479 1 757 1 812 1 580 1 751 1
29 0 5 480 1 701 1 671 1 773 1 757 1
30 0 5 481 1 609 1 757 1 751 1 664 1
31 0 5 482 1 548 1 805 1 832 1 851 1
32 0 5 483 1 814 1 592 1 861 1 623 1
33 0 5 484 1 491 1 826 1 519 1 646 1
34 0 5 485 1 609 1 707 1 865 1 481 1
35 0 5 486 1 682 1 676 1 493 1 536 1
36 0 5 487 1 675 1 727 1 456 1 642 1
37 0 5 488 1 643 1 801 1 868 1 736 1
38 0 5 489 1 472 1 528 1 827 1 763 1
39 0 5 490 1 826 1 491 1 514 1 776 1
40 0 5 491 1 514 1 519 1 484 1 517 1
41 0 5 492 1 635 1 620 1 735 1 804 1
42 0 5 493 1 676 1 784 1 867 1 682 1
43 0 5 494 1 684 1 680 1 527 1 575 1
44 0 5 495 1 486 1 682 1 493 1 676 1
45 0 5 496 1 840 1 800 1 733 1 859 1
46 0 5 497 1 684 1 494 1 798 1 473 1
47 0 5 498 1 599 1 715 1 605 1 541 1
48 0 5 499 1 757 1 689 1 671 1 481 1
49 0 5 500 1 797 1 691 1 550 1 702 1
50 0 5 501 1 539 1 522 1 754 1 848 1
51 0 5 502 1 835 1 572 1 746 1 657 1
52 0 5 503 1 453 1 633 1 539 1 522 1
53 0 5 504 1 766 1 743 1 468 1 588 1
54 0 5 505 1 765 1 538 1 706 1 583 1
55 0 5 506 1 632 1 760 1 838 1 617 1
56 0 5 507 1 572 1 613 1 502 1 708 1
57 0 5 508 1 593 1 590 1 726 1 513 1
58 0 5 509 1 500 1 696 1 797 1 742 1
59 0 5 510 1 808 1 586 1 572 1 796 1
60 0 5 511 1 705 1 630 1 779 1 674 1
61 0 5 512 1 864 1 505 1 713 1 583 1
62 0 5 513 1 670 1 463 1 742 1 821 1
63 0 5 514 1 491 1 484 1 519 1 517 1
64 0 5 515 1 573 1 625 1 685 1 665 1
65 0 5 516 1 660 1 795 1 552 1 721 1
66 0 5 517 1 848 1 697 1 815 1 759 1
67 0 5 518 1 729 1 777 1 820 1 856 1
68 0 5 519 1 563 1 517 1 484 1 646 1
69 0 5 520 1 466 1 523 1 756 1 565 1
70 0 5 521 1 611 1 619 1 756 1 846 1
71 0 5 522 1 754 1 653 1 539 1 780 1
72 0 5 523 1 565 1 740 1 663 1 458 1
73 0 5 524 1 817 1 655 1 725 1 858 1
74 0 5 525 1 780 1 754 1 766 1 522 1
75 0 5 526 1 520 1 466 1 756 1 523 1
76 0 5 527 1 680 1 575 1 635 1 569 1
77 0 5 528 1 763 1 693 1 827 1 856 1
78 0 5 529 1 526 1 846 1 611 1 466 1
79 0 5 530 1 683 1 730 1 640 1 839 1
80 0 5 531 1 531 1 720 1 649 1 493 1
81 0 5 532 1 767 1 868 1 736 1 803 1
82 0 5 533 1 649 1 536 1 698 1 764 1
83 0 5 534 1 748 1 787 1 811 1 681 1
84 0 5 535 1 806 1 602 1 658 1 661 1
85 0 5 536 1 649 1 698 1 546 1 862 1
86 0 5 537 1 780 1 629 1 754 1 522 1
87 0 5 538 1 864 1 505 1 765 1 811 1
88 0 5 539 1 522 1 754 1 525 1 653 1
89 0 5 540 1 661 1 669 1 637 1 660 1
90 0 5 541 1 618 1 710 1 836 1 605 1
91 0 5 542 1 648 1 773 1 671 1 689 1
92 0 5 543 1 582 1 559 1 853 1 857 1
93 0 5 544 1 791 1 714 1 760 1 617 1
94 0 5 545 1 681 1 656 1 534 1 755 1
95 0 5 546 1 632 1 760 1 617 1 631 1
96 0 5 547 1 482 1 548 1 851 1 805 1
97 0 5 548 1 805 1 482 1 711 1 694 1
98 0 5 549 1 601 1 485 1 553 1 865 1
99 0 5 550 1 702 1 686 1 797 1 842 1
100 0 5 551 1 636 1 752 1 818 1 627 1
101 0 5 552 1 597 1 721 1 770 1 637 1
102 0 5 553 1 459 1 601 1 709 1 707 1
103 0 5 554 1 611 1 526 1 846 1 756 1
104 0 5 555 1 672 1 574 1 864 1 505 1
105 0 5 556 1 679 1 610 1 741 1 772 1
106 0 5 557 1 813 1 758 1 724 1 847 1
107 0 5 558 1 749 1 781 1 452 1 615 1
108 0 5 559 1 857 1 824 1 673 1 582 1
109 0 5 560 1 700 1 814 1 623 1 861 1
110 0 5 561 1 569 1 478 1 624 1 855 1
111 0 5 562 1 487 1 642 1 675 1 727 1
112 0 5 563 1 646 1 519 1 815 1 484 1
113 0 5 564 1 592 1 587 1 731 1 845 1
114 0 5 565 1 663 1 458 1 511 1 630 1
115 0 5 566 1 496 1 859 1 687 1 840 1
116 0 5 567 1 850 1 518 1 578 1 601 1
117 0 5 568 1 579 1 517 1 697 1 484 1
118 0 5 569 1 699 1 802 1 855 1 734 1
119 0 5 570 1 473 1 798 1 497 1 684 1
120 0 5 571 1 684 1 494 1 680 1 575 1
121 0 5 572 1 746 1 502 1 835 1 657 1
122 0 5 573 1 685 1 515 1 625 1 665 1
123 0 5 574 1 672 1 864 1 505 1 538 1
124 0 5 575 1 680 1 527 1 635 1 734 1
125 0 5 576 1 799 1 556 1 679 1 610 1
126 0 5 577 1 775 1 771 1 764 1 677 1
127 0 5 578 1 850 1 567 1 518 1 601 1
128 0 5 579 1 697 1 848 1 646 1 815 1
129 0 5 580 1 479 1 644 1 691 1 650 1
130 0 5 581 1 715 1 747 1 628 1 589 1
131 0 5 582 1 857 1 824 1 559 1 753 1
132 0 5 583 1 765 1 713 1 706 1 746 1
133 0 5 584 1 832 1 851 1 717 1 474 1
134 0 5 585 1 662 1 826 1 776 1 491 1
135 0 5 586 1 853 1 559 1 543 1 746 1
136 0 5 587 1 592 1 564 1 731 1 845 1
137 0 5 588 1 769 1 474 1 542 1 629 1
138 0 5 589 1 836 1 828 1 628 1 715 1
139 0 5 590 1 726 1 622 1 742 1 456 1
140 0 5 591 1 844 1 732 1 488 1 643 1
141 0 5 592 1 731 1 564 1 587 1 461 1
142 0 5 593 1 508 1 590 1 726 1 622 1
143 0 5 594 1 728 1 490 1 716 1 759 1
144 0 5 595 1 667 1 733 1 498 1 581 1
145 0 5 596 1 755 1 651 1 681 1 545 1
146 0 5 597 1 770 1 558 1 604 1 788 1
147 0 5 598 1 720 1 867 1 531 1 460 1
148 0 5 599 1 605 1 541 1 618 1 628 1
149 0 5 600 1 830 1 616 1 523 1 819 1
150 0 5 601 1 553 1 459 1 485 1 865 1
151 0 5 602 1 806 1 658 1 818 1 553 1
152 0 5 603 1 665 1 573 1 645 1 515 1
153 0 5 604 1 788 1 558 1 455 1 452 1
154 0 5 605 1 541 1 618 1 628 1 710 1
155 0 5 606 1 638 1 654 1 833 1 813 1
156 0 5 607 1 813 1 557 1 847 1 724 1
157 0 5 608 1 662 1 834 1 776 1 514 1
158 0 5 609 1 664 1 621 1 707 1 461 1
159 0 5 610 1 556 1 679 1 772 1 741 1
160 0 5 611 1 756 1 523 1 520 1 466 1
161 0 5 612 1 782 1 595 1 789 1 667 1
162 0 5 613 1 502 1 706 1 507 1 572 1
163 0 5 614 1 620 1 804 1 492 1 735 1
164 0 5 615 1 452 1 493 1 788 1 781 1
165 0 5 616 1 819 1 843 1 511 1 663 1
166 0 5 617 1 598 1 760 1 714 1 852 1
167 0 5 618 1 710 1 836 1 541 1 576 1
168 0 5 619 1 600 1 816 1 792 1 830 1
169 0 5 620 1 735 1 492 1 804 1 741 1
170 0 5 621 1 865 1 689 1 757 1 481 1
171 0 5 622 1 456 1 562 1 642 1 727 1
172 0 5 623 1 695 1 739 1 691 1 644 1
173 0 5 624 1 561 1 478 1 569 1 678 1
174 0 5 625 1 613 1 507 1 502 1 706 1
175 0 5 626 1 723 1 696 1 742 1 593 1
176 0 5 627 1 856 1 467 1 455 1 582 1
177 0 5 628 1 589 1 605 1 836 1 541 1
178 0 5 629 1 547 1 477 1 851 1 474 1
179 0 5 630 1 779 1 511 1 705 1 458 1
180 0 5 631 1 838 1 617 1 598 1 831 1
181 0 5 632 1 838 1 760 1 598 1 617 1
182 0 5 633 1 453 1 568 1 579 1 491 1
183 0 5 634 1 513 1 742 1 670 1 463 1
184 0 5 635 1 575 1 527 1 680 1 734 1
185 0 5 636 1 627 1 856 1 467 1 455 1
186 0 5 637 1 462 1 604 1 552 1 721 1
187 0 5 638 1 654 1 833 1 813 1 761 1
188 0 5 639 1 571 1 652 1 684 1 494 1
189 0 5 640 1 677 1 577 1 683 1 852 1
190 0 5 641 1 723 1 696 1 593 1 742 1
191 0 5 642 1 727 1 487 1 675 1 692 1
192 0 5 643 1 801 1 510 1 796 1 808 1
193 0 5 644 1 580 1 479 1 691 1 695 1
194 0 5 645 1 776 1 471 1 515 1 507 1
195 0 5 646 1 815 1 848 1 703 1 759 1
196 0 5 647 1 737 1 470 1 668 1 725 1
197 0 5 648 1 773 1 671 1 689 1 480 1
198 0 5 649 1 536 1 533 1 698 1 546 1
199 0 5 650 1 587 1 464 1 564 1 461 1
200 0 5 651 1 534 1 748 1 787 1 811 1
201 0 5 652 1 571 1 639 1 684 1 494 1
202 0 5 653 1 477 1 547 1 548 1 482 1
203 0 5 654 1 833 1 761 1 794 1 557 1
204 0 5 655 1 793 1 817 1 725 1 624 1
205 0 5 656 1 747 1 706 1 555 1 748 1
206 0 5 657 1 708 1 722 1 572 1 746 1
207 0 5 658 1 551 1 818 1 636 1 709 1
208 0 5 659 1 639 1 652 1 571 1 684 1
209 0 5 660 1 552 1 721 1 597 1 637 1
210 0 5 661 1 637 1 462 1 660 1 818 1
211 0 5 662 1 776 1 834 1 514 1 491 1
212 0 5 663 1 511 1 458 1 705 1 630 1
213 0 5 664 1 621 1 865 1 481 1 757 1
214 0 5 665 1 573 1 515 1 685 1 625 1
215 0 5 666 1 807 1 678 1 569 1 624 1
216 0 5 667 1 498 1 599 1 581 1 605 1
217 0 5 668 1 866 1 810 1 647 1 737 1
218 0 5 669 1 661 1 637 1 806 1 818 1
219 0 5 670 1 463 1 742 1 726 1 821 1
220 0 5 671 1 480 1 701 1 689 1 773 1
221 0 5 672 1 864 1 574 1 505 1 512 1
222 0 5 673 1 767 1 868 1 736 1 515 1
223 0 5 674 1 611 1 526 1 619 1 756 1
224 0 5 675 1 692 1 727 1 456 1 642 1
225 0 5 676 1 493 1 784 1 867 1 682 1
226 0 5 677 1 775 1 533 1 486 1 649 1
227 0 5 678 1 624 1 569 1 561 1 807 1
228 0 5 679 1 556 1 610 1 741 1 772 1
229 0 5 680 1 575 1 527 1 635 1 571 1
230 0 5 681 1 656 1 545 1 748 1 747 1
231 0 5 682 1 676 1 493 1 784 1 486 1
232 0 5 683 1 730 1 640 1 577 1 839 1
233 0 5 684 1 494 1 527 1 680 1 575 1
234 0 5 685 1 625 1 515 1 613 1 471 1
235 0 5 686 1 842 1 626 1 702 1 641 1
236 0 5 687 1 840 1 733 1 800 1 789 1
237 0 5 688 1 513 1 670 1 742 1 463 1
238 0 5 689 1 671 1 648 1 773 1 480 1
239 0 5 690 1 473 1 639 1 652 1 494 1
240 0 5 691 1 644 1 580 1 479 1 650 1
241 0 5 692 1 675 1 727 1 456 1 854 1
242 0 5 693 1 827 1 856 1 472 1 763 1
243 0 5 694 1 711 1 759 1 860 1 716 1
244 0 5 695 1 691 1 644 1 580 1 861 1
245 0 5 696 1 509 1 500 1 739 1 742 1
246 0 5 697 1 694 1 759 1 711 1 860 1
247 0 5 698 1 533 1 649 1 536 1 546 1
248 0 5 699 1 614 1 734 1 772 1 802 1
249 0 5 700 1 623 1 861 1 739 1 695 1
250 0 5 701 1 757 1 671 1 480 1 812 1
251 0 5 702 1 686 1 550 1 842 1 797 1
252 0 5 703 1 759 1 860 1 768 1 728 1
253 0 5 704 1 508 1 822 1 593 1 742 1
254 0 5 705 1 779 1 630 1 674 1 529 1
255 0 5 706 1 745 1 835 1 512 1 505 1
256 0 5 707 1 609 1 664 1 865 1 485 1
257 0 5 708 1 657 1 572 1 502 1 790 1
258 0 5 709 1 752 1 465 1 467 1 856 1
259 0 5 710 1 618 1 836 1 576 1 541 1
260 0 5 711 1 716 1 694 1 841 1 703 1
261 0 5 712 1 495 1 486 1 682 1 533 1
262 0 5 713 1 583 1 864 1 505 1 512 1
263 0 5 714 1 852 1 617 1 598 1 460 1
264 0 5 715 1 628 1 589 1 605 1 836 1
265 0 5 716 1 768 1 728 1 594 1 711 1
266 0 5 717 1 780 1 766 1 537 1 525 1
267 0 5 718 1 760 1 791 1 714 1 617 1
268 0 5 719 1 825 1 816 1 619 1 792 1
269 0 5 720 1 867 1 531 1 533 1 598 1
270 0 5 721 1 660 1 597 1 552 1 795 1
271 0 5 722 1 645 1 471 1 776 1 515 1
272 0 5 723 1 696 1 509 1 742 1 670 1
273 0 5 724 1 758 1 557 1 847 1 829 1
274 0 5 725 1 655 1 793 1 478 1 561 1
275 0 5 726 1 590 1 622 1 593 1 742 1
276 0 5 727 1 692 1 675 1 456 1 562 1
277 0 5 728 1 594 1 716 1 768 1 759 1
278 0 5 729 1 777 1 820 1 856 1 467 1
279 0 5 730 1 530 1 839 1 683 1 577 1
280 0 5 731 1 542 1 648 1 689 1 773 1
281 0 5 732 1 591 1 844 1 488 1 643 1
282 0 5 733 1 581 1 800 1 715 1 628 1
283 0 5 734 1 804 1 492 1 635 1 699 1
284 0 5 735 1 741 1 556 1 610 1 679 1
285 0 5 736 1 803 1 736 1 510 1 767 1
286 0 5 737 1 470 1 725 1 793 1 655 1
287 0 5 738 1 661 1 669 1 660 1 795 1
288 0 5 739 1 560 1 861 1 814 1 483 1
289 0 5 740 1 458 1 663 1 511 1 630 1
290 0 5 741 1 679 1 610 1 556 1 735 1
291 0 5 742 1 590 1 513 1 463 1 634 1
292 0 5 743 1 588 1 731 1 592 1 468 1
293 0 5 744 1 807 1 678 1 624 1 561 1
294 0 5 745 1 512 1 505 1 864 1 583 1
295 0 5 746 1 583 1 713 1 657 1 673 1
296 0 5 747 1 555 1 745 1 672 1 512 1
297 0 5 748 1 811 1 534 1 787 1 651 1
298 0 5 749 1 781 1 615 1 712 1 682 1
299 0 5 750 1 539 1 525 1 522 1 537 1
300 0 5 751 1 689 1 671 1 757 1 865 1
301 0 5 752 1 465 1 467 1 856 1 551 1
302 0 5 753 1 732 1 591 1 844 1 868 1
303 0 5 754 1 653 1 629 1 769 1 477 1
304 0 5 755 1 681 1 545 1 534 1 651 1
305 0 5 756 1 523 1 565 1 520 1 466 1
306 0 5 757 1 671 1 480 1 701 1 812 1
307 0 5 758 1 829 1 863 1 576 1 614 1
308 0 5 759 1 694 1 768 1 716 1 703 1
309 0 5 760 1 617 1 598 1 852 1 720 1
310 0 5 761 1 794 1 570 1 473 1 798 1
311 0 5 762 1 791 1 714 1 760 1 617 1
312 0 5 763 1 693 1 827 1 856 1 472 1
313 0 5 764 1 698 1 533 1 649 1 536 1
314 0 5 765 1 538 1 864 1 505 1 583 1
315 0 5 766 1 743 1 588 1 731 1 769 1
316 0 5 767 1 868 1 736 1 803 1 510 1
317 0 5 768 1 728 1 716 1 594 1 711 1
318 0 5 769 1 474 1 851 1 547 1 542 1
319 0 5 770 1 558 1 788 1 749 1 597 1
320 0 5 771 1 712 1 495 1 486 1 533 1
321 0 5 772 1 620 1 556 1 741 1 735 1
322 0 5 773 1 480 1 689 1 671 1 812 1
323 0 5 774 1 645 1 868 1 665 1 767 1
324 0 5 775 1 533 1 649 1 536 1 677 1
325 0 5 776 1 834 1 662 1 645 1 471 1
326 0 5 777 1 820 1 489 1 856 1 467 1
327 0 5 778 1 807 1 624 1 678 1 561 1
328 0 5 779 1 630 1 705 1 674 1 529 1
329 0 5 780 1 629 1 522 1 547 1 769 1
330 0 5 781 1 615 1 452 1 493 1 749 1
331 0 5 782 1 595 1 789 1 667 1 612 1
332 0 5 783 1 850 1 578 1 601 1 518 1
333 0 5 784 1 791 1 714 1 617 1 760 1
334 0 5 785 1 563 1 519 1 646 1 776 1
335 0 5 786 1 668 1 866 1 810 1 647 1
336 0 5 787 1 651 1 534 1 748 1 811 1
337 0 5 788 1 455 1 452 1 627 1 615 1
338 0 5 789 1 612 1 595 1 782 1 667 1
339 0 5 790 1 708 1 507 1 657 1 502 1
340 0 5 791 1 714 1 617 1 760 1 852 1
341 0 5 792 1 825 1 816 1 619 1 719 1
342 0 5 793 1 659 1 639 1 652 1 571 1
343 0 5 794 1 570 1 761 1 638 1 557 1
344 0 5 795 1 660 1 721 1 552 1 516 1
345 0 5 796 1 543 1 582 1 853 1 559 1
346 0 5 797 1 550 1 702 1 686 1 626 1
347 0 5 798 1 497 1 684 1 494 1 473 1
348 0 5 799 1 828 1 679 1 556 1 610 1
349 0 5 800 1 496 1 687 1 859 1 733 1
350 0 5 801 1 796 1 543 1 559 1 582 1
351 0 5 802 1 734 1 699 1 772 1 804 1
352 0 5 803 1 510 1 643 1 808 1 572 1
353 0 5 804 1 492 1 620 1 635 1 527 1
354 0 5 805 1 768 1 728 1 594 1 750 1
355 0 5 806 1 658 1 818 1 551 1 459 1
356 0 5 807 1 478 1 561 1 569 1 699 1
357 0 5 808 1 586 1 559 1 853 1 796 1
358 0 5 809 1 526 1 846 1 611 1 466 1
359 0 5 810 1 810 1 647 1 668 1 737 1
360 0 5 811 1 706 1 745 1 835 1 512 1
361 0 5 812 1 461 1 464 1 587 1 845 1
362 0 5 813 1 557 1 724 1 847 1 758 1
363 0 5 814 1 700 1 861 1 623 1 560 1
364 0 5 815 1 703 1 848 1 759 1 860 1
365 0 5 816 1 825 1 619 1 792 1 719 1
366 0 5 817 1 655 1 725 1 793 1 561 1
367 0 5 818 1 602 1 658 1 806 1 551 1
368 0 5 819 1 843 1 511 1 705 1 674 1
369 0 5 820 1 489 1 856 1 467 1 472 1
370 0 5 821 1 562 1 456 1 487 1 642 1
371 0 5 822 1 593 1 726 1 590 1 742 1
372 0 5 823 1 826 1 776 1 491 1 645 1
373 0 5 824 1 824 1 455 1 559 1 853 1
374 0 5 825 1 619 1 816 1 792 1 719 1
375 0 5 826 1 491 1 563 1 646 1 514 1
376 0 5 827 1 601 1 485 1 553 1 707 1
377 0 5 828 1 556 1 679 1 836 1 454 1
378 0 5 829 1 454 1 576 1 863 1 614 1
379 0 5 830 1 616 1 819 1 720 1 663 1
380 0 5 831 1 764 1 698 1 775 1 533 1
381 0 5 832 1 537 1 525 1 780 1 717 1
382 0 5 833 1 638 1 761 1 654 1 557 1
383 0 5 834 1 790 1 471 1 708 1 507 1
384 0 5 835 1 512 1 713 1 583 1 745 1
385 0 5 836 1 828 1 576 1 589 1 457 1
386 0 5 837 1 651 1 534 1 787 1 755 1
387 0 5 838 1 831 1 720 1 764 1 698 1
388 0 5 839 1 730 1 530 1 683 1 577 1
389 0 5 840 1 733 1 800 1 789 1 581 1
390 0 5 841 1 633 1 453 1 563 1 519 1
391 0 5 842 1 723 1 696 1 739 1 700 1
392 0 5 843 1 705 1 674 1 783 1 819 1
393 0 5 844 1 488 1 643 1 868 1 736 1
394 0 5 845 1 587 1 592 1 564 1 731 1
395 0 5 846 1 520 1 466 1 756 1 523 1
396 0 5 847 1 813 1 724 1 557 1 758 1
397 0 5 848 1 759 1 860 1 703 1 694 1
398 0 5 849 1 524 1 858 1 817 1 668 1
399 0 5 850 1 518 1 729 1 578 1 601 1
400 0 5 851 1 584 1 832 1 717 1 769 1
401 0 5 852 1 460 1 617 1 771 1 712 1
402 0 5 853 1 857 1 824 1 673 1 853 1
403 0 5 854 1 508 1 822 1 593 1 742 1
404 0 5 855 1 734 1 699 1 804 1 772 1
405 0 5 856 1 528 1 472 1 763 1 827 1
406 0 5 857 1 824 1 455 1 559 1 853 1
407 0 5 858 1 858 1 817 1 655 1 725 1
408 0 5 859 1 859 1 840 1 800 1 687 1
409 0 5 860 1 694 1 768 1 716 1 703 1
410 0 5 861 1 695 1 739 1 691 1 644 1
411 0 5 862 1 632 1 760 1 838 1 617 1
412 0 5 863 1 454 1 576 1 863 1 614 1
413 0 5 864 1 765 1 538 1 706 1 583 1
414 0 5 865 1 757 1 609 1 751 1 664 1
415 0 5 866 1 647 1 668 1 737 1 810 1
416 0 5 867 1 531 1 720 1 649 1 493 1
417 0 5 868 1 803 1 767 1 510 1 736 1
418 0 5 869 0 452 1 869 1 870 1 871 1
419 0 5 870 0 452 1 869 1 870 1 871 1
420 0 5 871 0 452 1 869 1 870 1 871 1
421 0 5 872 0 452 1 869 1 870 1 871 1
422 0 5 873 0 452 1 869 1 870 1 871 1
423 0 5 874 0 452 1 869 1 870 1 871 1
424 0 5 875 0 452 1 869 1 870 1 871 1
425 0 5 876 0 452 1 869 1 870 1 871 1
426 0 5 877 0 452 1 869 1 870 1 871 1
427 0 5 878 0 452 1 869 1 870 1 871 1
428 0 5 879 0 452 1 869 1 870 1 871 1
429 0 5 880 0 452 1 869 1 870 1 871 1
430 0 5 881 0 452 1 869 1 870 1 871 1
431 0 5 882 0 452 1 869 1 870 1 871 1
432 0 5 883 0 452 1 869 1 870 1 871 1
433 0 5 884 0 452 1 869 1 870 1 871 1
434 0 5 885 0 452 1 869 1 870 1 871 1
435 0 5 886 0 452 1 869 1 870 1 871 1
436 0 5 887 0 452 1 869 1 870 1 871 1
437 0 5 888 0 452 1 869 1 870 1 871 1
438 0 5 889 0 452 1 869 1 870 1 871 1
439 0 5 890 0 452 1 869 1 870 1 871 1
440 0 5 891 0 452 1 869 1 870 1 871 1
441 0 5 892 0 452 1 869 1 870 1 871 1
442 0 5 893 0 452 1 869 1 870 1 871 1
443 0 5 894 0 452 1 869 1 870 1 871 1
444 0 5 895 0 452 1 869 1 870 1 871 1
445 0 5 896 0 452 1 869 1 870 1 871 1
446 0 5 897 0 452 1 869 1 870 1 871 1
447 0 5 898 0 452 1 869 1 870 1 871 1
448 0 5 899 0 452 1 869 1 870 1 871 1
449 0 5 900 0 452 1 869 1 870 1 871 1
450 0 5 901 0 452 1 869 1 870 1 871 1
451 0 5 902 0 452 1 869 1 870 1 871 1
452 0 5 1 0 451 1 450 1 449 1 448 1
453 0 5 2 1 182 1 390 1 52 1 50 1
454 0 5 3 1 378 1 412 1 163 1 377 1
455 0 5 4 1 337 1 176 1 373 1 406 1
456 0 5 5 1 171 1 139 1 275 1 291 1
457 0 5 6 1 385 1 259 1 167 1 338 1
458 0 5 7 1 289 1 212 1 114 1 15 1
459 0 5 8 1 102 1 150 1 98 1 30 1
460 0 5 9 1 401 1 147 1 263 1 166 1
461 0 5 10 1 13 1 361 1 199 1 414 1
462 0 5 11 1 186 1 210 1 101 1 287 1
463 0 5 12 1 219 1 62 1 291 1 183 1
464 0 5 13 1 10 1 199 1 361 1 394 1
465 0 5 14 1 301 1 258 1 100 1 367 1
466 0 5 15 1 69 1 75 1 395 1 305 1
467 0 5 16 1 14 1 301 1 242 1 312 1
468 0 5 17 1 53 1 292 1 113 1 136 1
469 0 5 18 1 228 1 105 1 284 1 169 1
470 0 5 19 1 286 1 196 1 217 1 359 1
471 0 5 20 1 194 1 325 1 64 1 271 1
472 0 5 21 1 38 1 16 1 405 1 242 1
473 0 5 22 1 119 1 343 1 310 1 382 1
474 0 5 23 1 318 1 137 1 315 1 133 1
475 0 5 24 1 143 1 277 1 402 1 108 1
476 0 5 25 1 123 1 221 1 54 1 413 1
477 0 5 26 1 202 1 71 1 303 1 178 1
478 0 5 27 1 356 1 173 1 227 1 110 1
479 0 5 28 1 129 1 193 1 306 1 240 1
480 0 5 29 1 322 1 220 1 306 1 250 1
481 0 5 30 1 256 1 213 1 170 1 30 1
482 0 5 31 1 96 1 400 1 97 1 26 1
483 0 5 32 1 288 1 363 1 28 1 199 1
484 0 5 33 1 68 1 63 1 40 1 334 1
485 0 5 34 1 256 1 98 1 30 1 150 1
486 0 5 35 1 44 1 261 1 82 1 85 1
487 0 5 36 1 111 1 191 1 224 1 5 1
488 0 5 37 1 393 1 140 1 281 1 316 1
489 0 5 38 1 369 1 326 1 242 1 312 1
490 0 5 39 1 143 1 265 1 277 1 317 1
491 0 5 40 1 63 1 33 1 39 1 375 1
492 0 5 41 1 353 1 283 1 169 1 163 1
493 0 5 42 1 225 1 231 1 35 1 44 1
494 0 5 43 1 233 1 120 1 76 1 229 1
495 0 5 44 1 261 1 320 1 9 1 225 1
496 0 5 45 1 115 1 349 1 408 1 385 1
497 0 5 46 1 347 1 22 1 43 1 233 1
498 0 5 47 1 216 1 338 1 144 1 282 1
499 0 5 48 1 10 1 13 1 199 1 30 1
500 0 5 49 1 58 1 245 1 272 1 190 1
501 0 5 50 1 143 1 277 1 354 1 265 1
502 0 5 51 1 162 1 121 1 56 1 174 1
503 0 5 52 1 265 1 260 1 243 1 409 1
504 0 5 53 1 133 1 292 1 113 1 17 1
505 0 5 54 1 61 1 294 1 262 1 384 1
506 0 5 55 1 85 1 198 1 82 1 166 1
507 0 5 56 1 20 1 162 1 174 1 64 1
508 0 5 57 1 403 1 253 1 142 1 291 1
509 0 5 58 1 245 1 272 1 190 1 175 1
510 0 5 59 1 352 1 285 1 417 1 192 1
511 0 5 60 1 212 1 179 1 7 1 114 1
512 0 5 61 1 294 1 384 1 255 1 360 1
513 0 5 62 1 237 1 183 1 291 1 275 1
514 0 5 63 1 40 1 33 1 39 1 375 1
515 0 5 64 1 214 1 234 1 122 1 194 1
516 0 5 65 1 270 1 344 1 1 1 287 1
517 0 5 66 1 68 1 40 1 63 1 117 1
518 0 5 67 1 399 1 116 1 127 1 332 1
519 0 5 68 1 40 1 63 1 33 1 334 1
520 0 5 69 1 395 1 75 1 305 1 160 1
521 0 5 70 1 328 1 254 1 179 1 60 1
522 0 5 71 1 88 1 50 1 329 1 74 1
523 0 5 72 1 305 1 160 1 69 1 75 1
524 0 5 73 1 398 1 407 1 204 1 43 1
525 0 5 74 1 299 1 266 1 381 1 88 1
526 0 5 75 1 358 1 78 1 103 1 223 1
527 0 5 76 1 124 1 229 1 184 1 41 1
528 0 5 77 1 16 1 405 1 38 1 242 1
529 0 5 78 1 328 1 254 1 179 1 60 1
530 0 5 79 1 279 1 388 1 232 1 181 1
531 0 5 80 1 80 1 269 1 147 1 166 1
532 0 5 81 1 402 1 108 1 131 1 295 1
533 0 5 82 1 247 1 313 1 85 1 198 1
534 0 5 83 1 200 1 297 1 336 1 386 1
535 0 5 84 1 312 1 242 1 77 1 405 1
536 0 5 85 1 198 1 82 1 247 1 313 1
537 0 5 86 1 266 1 381 1 74 1 299 1
538 0 5 87 1 314 1 54 1 413 1 132 1
539 0 5 88 1 50 1 299 1 71 1 74 1
540 0 5 89 1 1 1 287 1 218 1 367 1
541 0 5 90 1 154 1 148 1 177 1 264 1
542 0 5 91 1 280 1 48 1 394 1 141 1
543 0 5 92 1 345 1 350 1 108 1 402 1
544 0 5 93 1 225 1 42 1 231 1 35 1
545 0 5 94 1 304 1 25 1 230 1 145 1
546 0 5 95 1 85 1 198 1 82 1 247 1
547 0 5 96 1 178 1 329 1 318 1 266 1
548 0 5 97 1 26 1 31 1 96 1 243 1
549 0 5 98 1 376 1 150 1 312 1 242 1
550 0 5 99 1 346 1 251 1 235 1 49 1
551 0 5 100 1 207 1 355 1 367 1 8 1
552 0 5 101 1 209 1 344 1 65 1 270 1
553 0 5 102 1 150 1 98 1 376 1 414 1
554 0 5 103 1 328 1 254 1 223 1 179 1
555 0 5 104 1 296 1 360 1 205 1 255 1
556 0 5 105 1 228 1 290 1 159 1 284 1
557 0 5 106 1 273 1 362 1 396 1 382 1
558 0 5 107 1 319 1 146 1 153 1 270 1
559 0 5 108 1 135 1 92 1 402 1 406 1
560 0 5 109 1 288 1 363 1 32 1 199 1
561 0 5 110 1 173 1 227 1 356 1 293 1
562 0 5 111 1 370 1 171 1 12 1 224 1
563 0 5 112 1 68 1 334 1 375 1 33 1
564 0 5 113 1 394 1 136 1 199 1 141 1
565 0 5 114 1 72 1 305 1 69 1 75 1
566 0 5 115 1 349 1 385 1 377 1 123 1
567 0 5 116 1 127 1 1 1 332 1 399 1
568 0 5 117 1 2 1 182 1 390 1 33 1
569 0 5 118 1 227 1 110 1 173 1 356 1
570 0 5 119 1 343 1 310 1 382 1 203 1
571 0 5 120 1 201 1 188 1 208 1 229 1
572 0 5 121 1 51 1 56 1 162 1 64 1
573 0 5 122 1 214 1 152 1 64 1 271 1
574 0 5 123 1 221 1 104 1 54 1 413 1
575 0 5 124 1 184 1 229 1 41 1 76 1
576 0 5 125 1 412 1 378 1 307 1 385 1
577 0 5 126 1 232 1 189 1 279 1 79 1
578 0 5 127 1 1 1 116 1 332 1 399 1
579 0 5 128 1 117 1 2 1 182 1 68 1
580 0 5 129 1 193 1 240 1 28 1 244 1
581 0 5 130 1 282 1 349 1 389 1 45 1
582 0 5 131 1 92 1 345 1 108 1 402 1
583 0 5 132 1 262 1 295 1 384 1 61 1
584 0 5 133 1 400 1 322 1 23 1 318 1
585 0 5 134 1 206 1 308 1 409 1 33 1
586 0 5 135 1 357 1 59 1 143 1 352 1
587 0 5 136 1 394 1 113 1 199 1 141 1
588 0 5 137 1 315 1 292 1 17 1 53 1
589 0 5 138 1 177 1 264 1 125 1 3 1
590 0 5 139 1 275 1 291 1 371 1 142 1
591 0 5 140 1 281 1 302 1 373 1 406 1
592 0 5 141 1 136 1 113 1 394 1 292 1
593 0 5 142 1 371 1 275 1 57 1 291 1
594 0 5 143 1 277 1 317 1 265 1 409 1
595 0 5 144 1 331 1 161 1 338 1 6 1
596 0 5 145 1 314 1 123 1 413 1 221 1
597 0 5 146 1 101 1 270 1 209 1 344 1
598 0 5 147 1 309 1 166 1 181 1 263 1
599 0 5 148 1 47 1 216 1 264 1 338 1
600 0 5 149 1 168 1 365 1 374 1 341 1
601 0 5 150 1 98 1 376 1 102 1 30 1
602 0 5 151 1 367 1 84 1 287 1 312 1
603 0 5 152 1 132 1 206 1 262 1 295 1
604 0 5 153 1 11 1 186 1 146 1 1 1
605 0 5 154 1 148 1 177 1 264 1 47 1
606 0 5 155 1 343 1 382 1 377 1 233 1
607 0 5 156 1 377 1 348 1 228 1 125 1
608 0 5 157 1 134 1 39 1 372 1 194 1
609 0 5 158 1 256 1 414 1 30 1 34 1
610 0 5 159 1 105 1 290 1 228 1 284 1
611 0 5 160 1 103 1 70 1 223 1 358 1
612 0 5 161 1 6 1 338 1 45 1 331 1
613 0 5 162 1 174 1 56 1 234 1 64 1
614 0 5 163 1 248 1 404 1 118 1 283 1
615 0 5 164 1 330 1 337 1 298 1 1 1
616 0 5 165 1 379 1 149 1 72 1 269 1
617 0 5 166 1 309 1 263 1 181 1 267 1
618 0 5 167 1 90 1 259 1 385 1 154 1
619 0 5 168 1 374 1 341 1 268 1 365 1
620 0 5 169 1 353 1 41 1 163 1 321 1
621 0 5 170 1 213 1 158 1 256 1 414 1
622 0 5 171 1 139 1 275 1 142 1 57 1
623 0 5 172 1 249 1 109 1 363 1 288 1
624 0 5 173 1 227 1 327 1 110 1 18 1
625 0 5 174 1 234 1 64 1 122 1 214 1
626 0 5 175 1 235 1 28 1 251 1 129 1
627 0 5 176 1 185 1 301 1 373 1 100 1
628 0 5 177 1 264 1 154 1 130 1 259 1
629 0 5 178 1 329 1 86 1 303 1 266 1
630 0 5 179 1 7 1 328 1 254 1 60 1
631 0 5 180 1 95 1 340 1 55 1 411 1
632 0 5 181 1 411 1 55 1 95 1 340 1
633 0 5 182 1 390 1 52 1 2 1 50 1
634 0 5 183 1 291 1 224 1 276 1 142 1
635 0 5 184 1 41 1 353 1 321 1 283 1
636 0 5 185 1 100 1 207 1 367 1 355 1
637 0 5 186 1 210 1 218 1 89 1 287 1
638 0 5 187 1 382 1 155 1 343 1 377 1
639 0 5 188 1 201 1 208 1 342 1 204 1
640 0 5 189 1 232 1 79 1 279 1 401 1
641 0 5 190 1 235 1 28 1 251 1 129 1
642 0 5 191 1 5 1 111 1 171 1 224 1
643 0 5 192 1 37 1 393 1 140 1 352 1
644 0 5 193 1 240 1 244 1 172 1 28 1
645 0 5 194 1 24 1 323 1 271 1 152 1
646 0 5 195 1 112 1 68 1 334 1 33 1
647 0 5 196 1 415 1 217 1 359 1 335 1
648 0 5 197 1 91 1 238 1 280 1 300 1
649 0 5 198 1 82 1 247 1 85 1 313 1
650 0 5 199 1 250 1 322 1 29 1 220 1
651 0 5 200 1 336 1 386 1 145 1 304 1
652 0 5 201 1 188 1 208 1 342 1 204 1
653 0 5 202 1 303 1 71 1 88 1 329 1
654 0 5 203 1 187 1 155 1 382 1 343 1
655 0 5 204 1 274 1 366 1 407 1 73 1
656 0 5 205 1 230 1 94 1 304 1 25 1
657 0 5 206 1 257 1 339 1 51 1 56 1
658 0 5 207 1 355 1 367 1 151 1 218 1
659 0 5 208 1 342 1 204 1 274 1 366 1
660 0 5 209 1 344 1 65 1 270 1 287 1
661 0 5 210 1 89 1 287 1 218 1 1 1
662 0 5 211 1 157 1 325 1 134 1 63 1
663 0 5 212 1 114 1 289 1 72 1 15 1
664 0 5 213 1 158 1 256 1 30 1 414 1
665 0 5 214 1 152 1 323 1 64 1 122 1
666 0 5 215 1 327 1 290 1 169 1 227 1
667 0 5 216 1 144 1 338 1 331 1 161 1
668 0 5 217 1 359 1 415 1 335 1 398 1
669 0 5 218 1 1 1 287 1 89 1 210 1
670 0 5 219 1 62 1 237 1 183 1 291 1
671 0 5 220 1 238 1 197 1 300 1 91 1
672 0 5 221 1 104 1 123 1 61 1 54 1
673 0 5 222 1 108 1 402 1 295 1 135 1
674 0 5 223 1 328 1 254 1 179 1 60 1
675 0 5 224 1 36 1 276 1 191 1 241 1
676 0 5 225 1 231 1 35 1 42 1 198 1
677 0 5 226 1 189 1 232 1 9 1 79 1
678 0 5 227 1 327 1 173 1 293 1 18 1
679 0 5 228 1 105 1 290 1 284 1 169 1
680 0 5 229 1 76 1 124 1 184 1 120 1
681 0 5 230 1 304 1 94 1 25 1 145 1
682 0 5 231 1 44 1 35 1 198 1 82 1
683 0 5 232 1 79 1 279 1 189 1 388 1
684 0 5 233 1 120 1 201 1 229 1 124 1
685 0 5 234 1 122 1 214 1 64 1 194 1
686 0 5 235 1 251 1 99 1 346 1 370 1
687 0 5 236 1 349 1 115 1 408 1 45 1
688 0 5 237 1 224 1 291 1 276 1 36 1
689 0 5 238 1 300 1 170 1 48 1 414 1
690 0 5 239 1 19 1 342 1 286 1 43 1
691 0 5 240 1 244 1 172 1 410 1 288 1
692 0 5 241 1 276 1 224 1 191 1 36 1
693 0 5 242 1 312 1 77 1 21 1 16 1
694 0 5 243 1 246 1 308 1 409 1 397 1
695 0 5 244 1 172 1 410 1 288 1 249 1
696 0 5 245 1 272 1 58 1 190 1 391 1
697 0 5 246 1 128 1 66 1 117 1 195 1
698 0 5 247 1 313 1 380 1 387 1 9 1
699 0 5 248 1 118 1 356 1 351 1 27 1
700 0 5 249 1 109 1 363 1 288 1 32 1
701 0 5 250 1 29 1 220 1 306 1 238 1
702 0 5 251 1 99 1 346 1 235 1 175 1
703 0 5 252 1 364 1 397 1 409 1 195 1
704 0 5 253 1 241 1 224 1 276 1 36 1
705 0 5 254 1 60 1 328 1 179 1 212 1
706 0 5 255 1 162 1 360 1 174 1 297 1
707 0 5 256 1 34 1 158 1 414 1 30 1
708 0 5 257 1 339 1 56 1 383 1 121 1
709 0 5 258 1 8 1 102 1 150 1 367 1
710 0 5 259 1 167 1 90 1 385 1 154 1
711 0 5 260 1 243 1 246 1 409 1 308 1
712 0 5 261 1 320 1 9 1 82 1 401 1
713 0 5 262 1 384 1 295 1 61 1 132 1
714 0 5 263 1 340 1 93 1 311 1 333 1
715 0 5 264 1 130 1 282 1 349 1 45 1
716 0 5 265 1 260 1 308 1 409 1 277 1
717 0 5 266 1 381 1 133 1 299 1 74 1
718 0 5 267 1 85 1 225 1 42 1 333 1
719 0 5 268 1 341 1 365 1 399 1 116 1
720 0 5 269 1 147 1 166 1 416 1 309 1
721 0 5 270 1 344 1 209 1 65 1 101 1
722 0 5 271 1 132 1 262 1 206 1 295 1
723 0 5 272 1 190 1 175 1 391 1 183 1
724 0 5 273 1 362 1 396 1 106 1 156 1
725 0 5 274 1 366 1 204 1 407 1 73 1
726 0 5 275 1 139 1 371 1 142 1 291 1
727 0 5 276 1 191 1 36 1 5 1 224 1
728 0 5 277 1 317 1 265 1 308 1 409 1
729 0 5 278 1 67 1 399 1 116 1 127 1
730 0 5 279 1 388 1 232 1 79 1 340 1
731 0 5 280 1 141 1 292 1 394 1 113 1
732 0 5 281 1 140 1 302 1 373 1 406 1
733 0 5 282 1 389 1 45 1 349 1 236 1
734 0 5 283 1 404 1 351 1 248 1 118 1
735 0 5 284 1 169 1 41 1 163 1 321 1
736 0 5 285 1 285 1 316 1 24 1 81 1
737 0 5 286 1 196 1 359 1 415 1 217 1
738 0 5 287 1 1 1 89 1 218 1 367 1
739 0 5 288 1 249 1 109 1 363 1 410 1
740 0 5 289 1 15 1 72 1 69 1 75 1
741 0 5 290 1 284 1 169 1 105 1 321 1
742 0 5 291 1 219 1 62 1 183 1 275 1
743 0 5 292 1 315 1 17 1 53 1 74 1
744 0 5 293 1 229 1 76 1 124 1 327 1
745 0 5 294 1 255 1 360 1 384 1 297 1
746 0 5 295 1 121 1 51 1 56 1 162 1
747 0 5 296 1 205 1 94 1 230 1 360 1
748 0 5 297 1 83 1 336 1 200 1 304 1
749 0 5 298 1 107 1 337 1 319 1 261 1
750 0 5 299 1 354 1 260 1 31 1 243 1
751 0 5 300 1 10 1 13 1 30 1 414 1
752 0 5 301 1 258 1 100 1 8 1 367 1
753 0 5 302 1 406 1 373 1 402 1 108 1
754 0 5 303 1 71 1 88 1 74 1 266 1
755 0 5 304 1 145 1 25 1 83 1 336 1
756 0 5 305 1 160 1 103 1 75 1 69 1
757 0 5 306 1 414 1 30 1 10 1 170 1
758 0 5 307 1 273 1 396 1 106 1 362 1
759 0 5 308 1 397 1 252 1 243 1 364 1
760 0 5 309 1 267 1 181 1 166 1 93 1
761 0 5 310 1 203 1 382 1 343 1 187 1
762 0 5 311 1 225 1 42 1 198 1 231 1
763 0 5 312 1 77 1 21 1 16 1 405 1
764 0 5 313 1 380 1 387 1 9 1 180 1
765 0 5 314 1 413 1 54 1 132 1 87 1
766 0 5 315 1 17 1 53 1 266 1 74 1
767 0 5 316 1 81 1 417 1 285 1 222 1
768 0 5 317 1 265 1 252 1 308 1 409 1
769 0 5 318 1 137 1 315 1 329 1 17 1
770 0 5 319 1 146 1 101 1 270 1 11 1
771 0 5 320 1 9 1 401 1 147 1 166 1
772 0 5 321 1 227 1 173 1 248 1 27 1
773 0 5 322 1 197 1 91 1 238 1 280 1
774 0 5 323 1 222 1 152 1 24 1 285 1
775 0 5 324 1 226 1 126 1 85 1 320 1
776 0 5 325 1 211 1 194 1 157 1 134 1
777 0 5 326 1 278 1 67 1 399 1 116 1
778 0 5 327 1 76 1 284 1 41 1 169 1
779 0 5 328 1 179 1 254 1 7 1 60 1
780 0 5 329 1 86 1 266 1 74 1 381 1
781 0 5 330 1 298 1 337 1 1 1 164 1
782 0 5 331 1 161 1 6 1 338 1 408 1
783 0 5 332 1 1 1 242 1 312 1 21 1
784 0 5 333 1 225 1 42 1 35 1 231 1
785 0 5 334 1 372 1 134 1 143 1 39 1
786 0 5 335 1 43 1 233 1 120 1 201 1
787 0 5 336 1 83 1 297 1 200 1 304 1
788 0 5 337 1 153 1 11 1 1 1 186 1
789 0 5 338 1 331 1 161 1 6 1 389 1
790 0 5 339 1 383 1 56 1 211 1 20 1
791 0 5 340 1 93 1 311 1 267 1 333 1
792 0 5 341 1 168 1 268 1 374 1 365 1
793 0 5 342 1 274 1 204 1 366 1 407 1
794 0 5 343 1 310 1 203 1 382 1 274 1
795 0 5 344 1 65 1 270 1 1 1 287 1
796 0 5 345 1 350 1 192 1 357 1 59 1
797 0 5 346 1 49 1 190 1 175 1 235 1
798 0 5 347 1 22 1 119 1 46 1 343 1
799 0 5 348 1 3 1 125 1 228 1 159 1
800 0 5 349 1 282 1 389 1 45 1 408 1
801 0 5 350 1 192 1 37 1 352 1 140 1
802 0 5 351 1 27 1 118 1 356 1 110 1
803 0 5 352 1 417 1 285 1 316 1 24 1
804 0 5 353 1 283 1 163 1 41 1 169 1
805 0 5 354 1 97 1 31 1 260 1 317 1
806 0 5 355 1 151 1 84 1 367 1 218 1
807 0 5 356 1 215 1 327 1 18 1 227 1
808 0 5 357 1 59 1 352 1 285 1 192 1
809 0 5 358 1 328 1 254 1 179 1 60 1
810 0 5 359 1 359 1 217 1 335 1 398 1
811 0 5 360 1 297 1 83 1 336 1 64 1
812 0 5 361 1 250 1 29 1 220 1 306 1
813 0 5 362 1 156 1 396 1 155 1 106 1
814 0 5 363 1 32 1 288 1 109 1 141 1
815 0 5 364 1 195 1 112 1 33 1 68 1
816 0 5 365 1 341 1 168 1 374 1 268 1
817 0 5 366 1 73 1 407 1 204 1 398 1
818 0 5 367 1 355 1 210 1 218 1 287 1
819 0 5 368 1 165 1 379 1 392 1 60 1
820 0 5 369 1 326 1 278 1 67 1 258 1
821 0 5 370 1 12 1 291 1 62 1 219 1
822 0 5 371 1 403 1 253 1 142 1 291 1
823 0 5 372 1 143 1 265 1 277 1 317 1
824 0 5 373 1 131 1 373 1 402 1 108 1
825 0 5 374 1 268 1 341 1 365 1 241 1
826 0 5 375 1 39 1 372 1 33 1 134 1
827 0 5 376 1 242 1 312 1 21 1 77 1
828 0 5 377 1 348 1 385 1 3 1 105 1
829 0 5 378 1 307 1 273 1 106 1 396 1
830 0 5 379 1 149 1 72 1 168 1 269 1
831 0 5 380 1 387 1 180 1 181 1 401 1
832 0 5 381 1 133 1 31 1 400 1 26 1
833 0 5 382 1 203 1 155 1 187 1 343 1
834 0 5 383 1 211 1 20 1 325 1 157 1
835 0 5 384 1 51 1 255 1 360 1 162 1
836 0 5 385 1 138 1 377 1 177 1 348 1
837 0 5 386 1 87 1 314 1 123 1 413 1
838 0 5 387 1 180 1 181 1 411 1 166 1
839 0 5 388 1 279 1 232 1 79 1 340 1
840 0 5 389 1 45 1 236 1 408 1 349 1
841 0 5 390 1 265 1 260 1 243 1 409 1
842 0 5 391 1 235 1 28 1 251 1 129 1
843 0 5 392 1 368 1 254 1 165 1 223 1
844 0 5 393 1 140 1 281 1 302 1 81 1
845 0 5 394 1 113 1 136 1 199 1 141 1
846 0 5 395 1 358 1 78 1 103 1 223 1
847 0 5 396 1 273 1 362 1 106 1 382 1
848 0 5 397 1 66 1 364 1 195 1 33 1
849 0 5 398 1 43 1 229 1 233 1 120 1
850 0 5 399 1 127 1 116 1 332 1 1 1
851 0 5 400 1 23 1 318 1 96 1 133 1
852 0 5 401 1 263 1 340 1 166 1 309 1
853 0 5 402 1 135 1 92 1 406 1 373 1
854 0 5 403 1 241 1 224 1 276 1 36 1
855 0 5 404 1 27 1 118 1 110 1 356 1
856 0 5 405 1 14 1 301 1 242 1 312 1
857 0 5 406 1 131 1 373 1 402 1 108 1
858 0 5 407 1 398 1 407 1 204 1 229 1
859 0 5 408 1 115 1 408 1 349 1 385 1
860 0 5 409 1 397 1 252 1 243 1 364 1
861 0 5 410 1 249 1 109 1 363 1 288 1
862 0 5 411 1 85 1 198 1 82 1 55 1
863 0 5 412 1 307 1 412 1 273 1 106 1
864 0 5 413 1 61 1 294 1 262 1 384 1
865 0 5 414 1 170 1 30 1 256 1 34 1
866 0 5 415 1 217 1 335 1 359 1 398 1
867 0 5 416 1 269 1 147 1 80 1 166 1
868 0 5 417 1 316 1 285 1 24 1 81 1
869 0 5 418 0 451 1 450 1 449 1 448 1
870 0 5 419 0 451 1 450 1 449 1 448 1
871 0 5 420 0 451 1 450 1 449 1 448 1
872 0 5 421 0 451 1 450 1 449 1 448 1
873 0 5 422 0 451 1 450 1 449 1 448 1
874 0 5 423 0 451 1 450 1 449 1 448 1
875 0 5 424 0 451 1 450 1 449 1 448 1
876 0 5 425 0 451 1 450 1 449 1 448 1
877 0 5 426 0 451 1 450 1 449 1 448 1
878 0 5 427 0 451 1 450 1 449 1 448 1
879 0 5 428 0 451 1 450 1 449 1 448 1
880 0 5 429 0 451 1 450 1 449 1 448 1
881 0 5 430 0 451 1 450 1 449 1 448 1
882 0 5 431 0 451 1 450 1 449 1 448 1
883 0 5 432 0 451 1 450 1 449 1 448 1
884 0 5 433 0 451 1 450 1 449 1 448 1
885 0 5 434 0 451 1 450 1 449 1 448 1
886 0 5 435 0 451 1 450 1 449 1 448 1
887 0 5 436 0 451 1 450 1 449 1 448 1
888 0 5 437 0 451 1 450 1 449 1 448 1
889 0 5 438 0 451 1 450 1 449 1 448 1
890 0 5 439 0 451 1 450 1 449 1 448 1
891 0 5 440 0 451 1 450 1 449 1 448 1
892 0 5 441 0 451 1 450 1 449 1 448 1
893 0 5 442 0 451 1 450 1 449 1 448 1
894 0 5 443 0 451 1 450 1 449 1 448 1
895 0 5 444 0 451 1 450 1 449 1 448 1
896 0 5 445 0 451 1 450 1 449 1 448 1
897 0 5 446 0 451 1 450 1 449 1 448 1
898 0 5 447 0 451 1 450 1 449 1 448 1
899 0 5 448 0 451 1 450 1 449 1 448 1
900 0 5 449 0 451 1 450 1 449 1 448 1
901 0 5 450 0 451 1 450 1 449 1 448 1
902 0 5 451 0 451 1 450 1 449 1 448 1
-1
EOF
